123791
75
0
23
22
24
46
45
47
69
68
70
67
48
44
25
21
4
20
30
29
26
27
28
43
42
53
52
49
50
51
66
65
56
55
54
58
57
63
64
71
72
73
62
61
59
60
41
40
39
38
18
17
11
12
13
14
74
15
16
37
36
35
34
33
32
31
19
5
10
9
6
8
7
3
2
1
